;--------------------------------------------------------------------------
; Benchmark created with Zazu
; Benchmark: 		divbin_norm_inv1_2xlen3
; Created:   		2022-01-11 18:12
; Generator of the ideal: 
; 		 -b00*x00 + r - r00 + b*x
; Testing invariant: -r^3*r00 + r^4 + b*r^2 + b^3*r^2*r00*x^5 + b^2*r00*x^2 - b^2*r*x^2 + b^3*r^3*x^4 - b^3*r^3*x^5 - b^2*r*r00*x^3 + b*r^4*x^3 - b00*r^3*x00 + b*r^6*x^3 + b^3*r00*x^5 - b^4*x^6 - b^2*b00*r^3*x^3*x00 - b^3*r*x^5 + b^2*r^2*x^3 - b^2*b00*r*x^3*x00 + b^2*r^4*x^3 + b^3*r*x^4 - b*b00*r*x00 - b*r^3*r00*x^3 + b*r^3*x + b^3*b00*x^5*x00 + b^2*b00*x^2*x00 + b^2*r*x - b^4*r^2*x^6 - b*r^5*r00*x^3 - b^2*r^3*r00*x^3 - b*b00*r^3*x^3*x00 - b^3*x^3 - b*r*r00 + b^3*b00*r^2*x^5*x00 - b*b00*r^5*x^3*x00 + b^2*r^3*x^4 + b^2*r^5*x^4
;--------------------------------------------------------------------------

(set-logic NRA)
(set-option :produce-proofs true)

(declare-const b00 Real)
(declare-const r00 Real)
(declare-const x00 Real)

(assert 
	(exists
		((b Real) (r Real) (x Real))
		(and
			(= (+ (- (+ (* (- 1) b00 x00) r) r00) (* b x)) 0)

			(or
				(not (= (+ (- (+ (- (+ (- (+ (- (+ (- (+ (- (+ (- (+ (- (+ (* (- 1) r r r r00) (* r r r r) (* (/ b 2) r r) (* (/ b 2) (/ b 2) (/ b 2) r r r00 2 x 2 x 2 x 2 x 2 x) (* (/ b 2) (/ b 2) r00 2 x 2 x)) (* (/ b 2) (/ b 2) r 2 x 2 x)) (* (/ b 2) (/ b 2) (/ b 2) r r r 2 x 2 x 2 x 2 x)) (* (/ b 2) (/ b 2) (/ b 2) r r r 2 x 2 x 2 x 2 x 2 x) (* (/ b 2) (/ b 2) r r00 2 x 2 x 2 x)) (* (/ b 2) r r r r 2 x 2 x 2 x)) (* b00 r r r x00)) (* (/ b 2) r r r r r r 2 x 2 x 2 x) (* (/ b 2) (/ b 2) (/ b 2) r00 2 x 2 x 2 x 2 x 2 x)) (* (/ b 2) (/ b 2) (/ b 2) (/ b 2) 2 x 2 x 2 x 2 x 2 x 2 x) (* (/ b 2) (/ b 2) b00 r r r 2 x 2 x 2 x x00) (* (/ b 2) (/ b 2) (/ b 2) r 2 x 2 x 2 x 2 x 2 x)) (* (/ b 2) (/ b 2) r r 2 x 2 x 2 x)) (* (/ b 2) (/ b 2) b00 r 2 x 2 x 2 x x00)) (* (/ b 2) (/ b 2) r r r r 2 x 2 x 2 x) (* (/ b 2) (/ b 2) (/ b 2) r 2 x 2 x 2 x 2 x)) (* (/ b 2) b00 r x00) (* (/ b 2) r r r r00 2 x 2 x 2 x)) (* (/ b 2) r r r 2 x) (* (/ b 2) (/ b 2) (/ b 2) b00 2 x 2 x 2 x 2 x 2 x x00) (* (/ b 2) (/ b 2) b00 2 x 2 x x00) (* (/ b 2) (/ b 2) r 2 x)) (* (/ b 2) (/ b 2) (/ b 2) (/ b 2) r r 2 x 2 x 2 x 2 x 2 x 2 x) (* (/ b 2) r r r r r r00 2 x 2 x 2 x) (* (/ b 2) (/ b 2) r r r r00 2 x 2 x 2 x) (* (/ b 2) b00 r r r 2 x 2 x 2 x x00) (* (/ b 2) (/ b 2) (/ b 2) 2 x 2 x 2 x) (* (/ b 2) r r00)) (* (/ b 2) (/ b 2) (/ b 2) b00 r r 2 x 2 x 2 x 2 x 2 x x00)) (* (/ b 2) b00 r r r r r 2 x 2 x 2 x x00)) (* (/ b 2) (/ b 2) r r r 2 x 2 x 2 x 2 x) (* (/ b 2) (/ b 2) r r r r r 2 x 2 x 2 x 2 x)) 0))
				(not (= (+ (- (+ (- (+ (- (+ (- (+ (- (+ (- (+ (- (+ (- (+ (* (- 1) (- r (/ b 2)) (- r (/ b 2)) (- r (/ b 2)) r00) (* (- r (/ b 2)) (- r (/ b 2)) (- r (/ b 2)) (- r (/ b 2))) (* (/ b 2) (- r (/ b 2)) (- r (/ b 2))) (* (/ b 2) (/ b 2) (/ b 2) (- r (/ b 2)) (- r (/ b 2)) r00 (+ (* 2 x) 1) (+ (* 2 x) 1) (+ (* 2 x) 1) (+ (* 2 x) 1) (+ (* 2 x) 1)) (* (/ b 2) (/ b 2) r00 (+ (* 2 x) 1) (+ (* 2 x) 1))) (* (/ b 2) (/ b 2) (- r (/ b 2)) (+ (* 2 x) 1) (+ (* 2 x) 1))) (* (/ b 2) (/ b 2) (/ b 2) (- r (/ b 2)) (- r (/ b 2)) (- r (/ b 2)) (+ (* 2 x) 1) (+ (* 2 x) 1) (+ (* 2 x) 1) (+ (* 2 x) 1))) (* (/ b 2) (/ b 2) (/ b 2) (- r (/ b 2)) (- r (/ b 2)) (- r (/ b 2)) (+ (* 2 x) 1) (+ (* 2 x) 1) (+ (* 2 x) 1) (+ (* 2 x) 1) (+ (* 2 x) 1)) (* (/ b 2) (/ b 2) (- r (/ b 2)) r00 (+ (* 2 x) 1) (+ (* 2 x) 1) (+ (* 2 x) 1))) (* (/ b 2) (- r (/ b 2)) (- r (/ b 2)) (- r (/ b 2)) (- r (/ b 2)) (+ (* 2 x) 1) (+ (* 2 x) 1) (+ (* 2 x) 1))) (* b00 (- r (/ b 2)) (- r (/ b 2)) (- r (/ b 2)) x00)) (* (/ b 2) (- r (/ b 2)) (- r (/ b 2)) (- r (/ b 2)) (- r (/ b 2)) (- r (/ b 2)) (- r (/ b 2)) (+ (* 2 x) 1) (+ (* 2 x) 1) (+ (* 2 x) 1)) (* (/ b 2) (/ b 2) (/ b 2) r00 (+ (* 2 x) 1) (+ (* 2 x) 1) (+ (* 2 x) 1) (+ (* 2 x) 1) (+ (* 2 x) 1))) (* (/ b 2) (/ b 2) (/ b 2) (/ b 2) (+ (* 2 x) 1) (+ (* 2 x) 1) (+ (* 2 x) 1) (+ (* 2 x) 1) (+ (* 2 x) 1) (+ (* 2 x) 1)) (* (/ b 2) (/ b 2) b00 (- r (/ b 2)) (- r (/ b 2)) (- r (/ b 2)) (+ (* 2 x) 1) (+ (* 2 x) 1) (+ (* 2 x) 1) x00) (* (/ b 2) (/ b 2) (/ b 2) (- r (/ b 2)) (+ (* 2 x) 1) (+ (* 2 x) 1) (+ (* 2 x) 1) (+ (* 2 x) 1) (+ (* 2 x) 1))) (* (/ b 2) (/ b 2) (- r (/ b 2)) (- r (/ b 2)) (+ (* 2 x) 1) (+ (* 2 x) 1) (+ (* 2 x) 1))) (* (/ b 2) (/ b 2) b00 (- r (/ b 2)) (+ (* 2 x) 1) (+ (* 2 x) 1) (+ (* 2 x) 1) x00)) (* (/ b 2) (/ b 2) (- r (/ b 2)) (- r (/ b 2)) (- r (/ b 2)) (- r (/ b 2)) (+ (* 2 x) 1) (+ (* 2 x) 1) (+ (* 2 x) 1)) (* (/ b 2) (/ b 2) (/ b 2) (- r (/ b 2)) (+ (* 2 x) 1) (+ (* 2 x) 1) (+ (* 2 x) 1) (+ (* 2 x) 1))) (* (/ b 2) b00 (- r (/ b 2)) x00) (* (/ b 2) (- r (/ b 2)) (- r (/ b 2)) (- r (/ b 2)) r00 (+ (* 2 x) 1) (+ (* 2 x) 1) (+ (* 2 x) 1))) (* (/ b 2) (- r (/ b 2)) (- r (/ b 2)) (- r (/ b 2)) (+ (* 2 x) 1)) (* (/ b 2) (/ b 2) (/ b 2) b00 (+ (* 2 x) 1) (+ (* 2 x) 1) (+ (* 2 x) 1) (+ (* 2 x) 1) (+ (* 2 x) 1) x00) (* (/ b 2) (/ b 2) b00 (+ (* 2 x) 1) (+ (* 2 x) 1) x00) (* (/ b 2) (/ b 2) (- r (/ b 2)) (+ (* 2 x) 1))) (* (/ b 2) (/ b 2) (/ b 2) (/ b 2) (- r (/ b 2)) (- r (/ b 2)) (+ (* 2 x) 1) (+ (* 2 x) 1) (+ (* 2 x) 1) (+ (* 2 x) 1) (+ (* 2 x) 1) (+ (* 2 x) 1)) (* (/ b 2) (- r (/ b 2)) (- r (/ b 2)) (- r (/ b 2)) (- r (/ b 2)) (- r (/ b 2)) r00 (+ (* 2 x) 1) (+ (* 2 x) 1) (+ (* 2 x) 1)) (* (/ b 2) (/ b 2) (- r (/ b 2)) (- r (/ b 2)) (- r (/ b 2)) r00 (+ (* 2 x) 1) (+ (* 2 x) 1) (+ (* 2 x) 1)) (* (/ b 2) b00 (- r (/ b 2)) (- r (/ b 2)) (- r (/ b 2)) (+ (* 2 x) 1) (+ (* 2 x) 1) (+ (* 2 x) 1) x00) (* (/ b 2) (/ b 2) (/ b 2) (+ (* 2 x) 1) (+ (* 2 x) 1) (+ (* 2 x) 1)) (* (/ b 2) (- r (/ b 2)) r00)) (* (/ b 2) (/ b 2) (/ b 2) b00 (- r (/ b 2)) (- r (/ b 2)) (+ (* 2 x) 1) (+ (* 2 x) 1) (+ (* 2 x) 1) (+ (* 2 x) 1) (+ (* 2 x) 1) x00)) (* (/ b 2) b00 (- r (/ b 2)) (- r (/ b 2)) (- r (/ b 2)) (- r (/ b 2)) (- r (/ b 2)) (+ (* 2 x) 1) (+ (* 2 x) 1) (+ (* 2 x) 1) x00)) (* (/ b 2) (/ b 2) (- r (/ b 2)) (- r (/ b 2)) (- r (/ b 2)) (+ (* 2 x) 1) (+ (* 2 x) 1) (+ (* 2 x) 1) (+ (* 2 x) 1)) (* (/ b 2) (/ b 2) (- r (/ b 2)) (- r (/ b 2)) (- r (/ b 2)) (- r (/ b 2)) (- r (/ b 2)) (+ (* 2 x) 1) (+ (* 2 x) 1) (+ (* 2 x) 1) (+ (* 2 x) 1))) 0))
			)
		)
	)
)
(check-sat)
(get-proof)
(exit)
